p wcnf 196 98 99 
1 35 117 0 
1 -58 60 0 
1 -106 -31 0 
1 -77 -46 0 
1 181 -190 0 
1 -165 -12 0 
1 72 100 0 
1 -60 -106 0 
1 83 -61 0 
1 115 120 0 
1 67 23 0 
1 89 158 0 
1 -119 195 0 
1 161 -24 0 
1 80 6 0 
1 -139 -162 0 
1 -106 -104 0 
1 -166 -54 0 
1 -140 161 0 
1 134 67 0 
1 -21 -139 0 
1 43 -149 0 
1 -177 32 0 
1 -50 -194 0 
1 -106 -147 0 
1 -7 195 0 
1 74 -61 0 
1 173 -65 0 
1 -87 -63 0 
1 10 8 0 
1 -25 -187 0 
1 165 59 0 
1 -11 -59 0 
1 93 99 0 
1 102 -43 0 
1 -161 132 0 
1 -121 -18 0 
1 57 -163 0 
1 -36 -66 0 
1 119 -120 0 
1 19 -117 0 
1 -26 86 0 
1 -167 135 0 
1 76 -181 0 
1 -189 174 0 
1 -178 90 0 
1 25 -157 0 
1 97 -44 0 
1 85 190 0 
1 137 -73 0 
1 11 -36 0 
1 -2 136 0 
1 138 -38 0 
1 -133 163 0 
1 31 140 0 
1 -119 -5 0 
1 -96 106 0 
1 -67 -35 0 
1 -35 -25 0 
1 -168 9 0 
1 116 44 0 
1 107 178 0 
1 -193 -156 0 
1 -166 -192 0 
1 133 154 0 
1 -3 13 0 
1 -12 -183 0 
1 -131 -195 0 
1 75 -30 0 
1 -30 -108 0 
1 -98 -39 0 
1 -110 -125 0 
1 101 -69 0 
1 95 -14 0 
1 -133 71 0 
1 -163 -111 0 
1 -14 -177 0 
1 157 -163 0 
1 83 -33 0 
1 -138 61 0 
1 -167 51 0 
1 -91 75 0 
1 -139 -37 0 
1 134 71 0 
1 -194 -20 0 
1 -16 63 0 
1 136 187 0 
1 -186 93 0 
1 97 -3 0 
1 80 -112 0 
1 165 -46 0 
1 22 -100 0 
1 106 86 0 
1 -145 173 0 
1 -98 -165 0 
1 110 112 0 
1 -130 -46 0 
1 -86 104 0 
